79
Time limit set to 60 seconds
Running CP solver
/home/omastto1/General-Optimization-Solver/src/solvers/mmrcpsp.py:42(stream:108:6): Warning: Cumulative expression 'pulse': height is zero, expression is zero everywhere.
                                                                                               VarCumulAtom_149 = pulse(task_0_mode_0, 0)
/home/omastto1/General-Optimization-Solver/src/solvers/mmrcpsp.py:42(stream:108:1252): Warning: Cumulative expression 'pulse': height is zero, expression is zero everywhere.
                                                                                                  VarCumulAtom_198 = pulse(task_17_mode_0, 0)
/home/omastto1/General-Optimization-Solver/src/solvers/mmrcpsp.py:42(stream:109:6): Warning: Cumulative expression 'pulse': height is zero, expression is zero everywhere.
                                                                                               VarCumulAtom_202 = pulse(task_0_mode_0, 0)
/home/omastto1/General-Optimization-Solver/src/solvers/mmrcpsp.py:42(stream:109:1256): Warning: Cumulative expression 'pulse': height is zero, expression is zero everywhere.
                                                                                                  VarCumulAtom_251 = pulse(task_17_mode_0, 0)
 ! --------------------------------------------------- CP Optimizer 20.1.0.0 --
 ! Minimization problem - 69 variables, 51 constraints
 ! TimeLimit            = 60
 ! Workers              = 14
 ! LogVerbosity         = Terse
 ! Initial process time : 0.00s (0.00s extraction + 0.00s propagation)
 !  . Log search space  : 157.8 (before), 157.8 (after)
 !  . Memory usage      : 754.6 kB (before), 754.6 kB (after)
 ! Using parallel search with 14 workers.
 ! ----------------------------------------------------------------------------
 !          Best Branches  Non-fixed    W       Branch decision
                        0         69                 -
 + New bound is 24
 ! Using iterative diving.
 ! Using temporal relaxation.
 *            31       49  0.26s        1      (gap is 22.58%)
 *            30      112  0.26s        1      (gap is 20.00%)
 *            28      152  0.26s        1      (gap is 14.29%)
 *            27      259  0.26s        1      (gap is 11.11%)
 *            25      303  0.26s        1      (gap is 4.00%)
 *            24      419  0.26s        1      (gap is 0.00%)
 ! ----------------------------------------------------------------------------
 ! Search completed, 6 solutions found.
 ! Best objective         : 24 (optimal - effective tol. is 0)
 ! Best bound             : 24
 ! ----------------------------------------------------------------------------
 ! Number of branches     : 53280
 ! Number of fails        : 1840
 ! Total memory usage     : 9.6 MB (9.5 MB CP Optimizer + 0.1 MB Concert)
 ! Time spent in solve    : 0.30s (0.30s engine + 0.00s extraction)
 ! Search speed (br. / s) : 183724.1
 ! ----------------------------------------------------------------------------
task_0: (start=0, end=0, size=0, length=0)
Task 0 is scheduled in mode 0 from 0 to 0
task_1: (start=0, end=3, size=3, length=3)
Task 1 is scheduled in mode 0 from 0 to 3
task_2: (start=0, end=1, size=1, length=1)
Task 2 is scheduled in mode 1 from 0 to 1
task_3: (start=0, end=1, size=1, length=1)
Task 3 is scheduled in mode 0 from 0 to 1
task_4: (start=1, end=6, size=5, length=5)
Task 4 is scheduled in mode 0 from 1 to 6
task_5: (start=3, end=9, size=6, length=6)
Task 5 is scheduled in mode 1 from 3 to 9
task_6: (start=9, end=10, size=1, length=1)
Task 6 is scheduled in mode 0 from 9 to 10
task_7: (start=6, end=7, size=1, length=1)
Task 7 is scheduled in mode 0 from 6 to 7
task_8: (start=10, end=13, size=3, length=3)
Task 8 is scheduled in mode 0 from 10 to 13
task_9: (start=7, end=12, size=5, length=5)
Task 9 is scheduled in mode 2 from 7 to 12
task_10: (start=9, end=15, size=6, length=6)
Task 10 is scheduled in mode 1 from 9 to 15
task_11: (start=12, end=17, size=5, length=5)
Task 11 is scheduled in mode 2 from 12 to 17
task_12: (start=9, end=15, size=6, length=6)
Task 12 is scheduled in mode 2 from 9 to 15
task_13: (start=13, end=16, size=3, length=3)
Task 13 is scheduled in mode 0 from 13 to 16
task_14: (start=15, end=23, size=8, length=8)
Task 14 is scheduled in mode 2 from 15 to 23
task_15: (start=17, end=24, size=7, length=7)
Task 15 is scheduled in mode 2 from 17 to 24
task_16: (start=15, end=23, size=8, length=8)
Task 16 is scheduled in mode 0 from 15 to 23
task_17: (start=24, end=24, size=0, length=0)
Task 17 is scheduled in mode 0 from 24 to 24
Optimal solution found
Objective value: 24
Solution is optimal.
